sat
(
  (define-fun C5_VM4 () Int
    0)
  (define-fun C4_VM1 () Int
    0)
  (define-fun C1_VM3 () Int
    1)
  (define-fun C2_VM1 () Int
    1)
  (define-fun C3_VM5 () Int
    0)
  (define-fun StorageProv3 () Int
    1000)
  (define-fun VM4Type () Int
    12)
  (define-fun C5_VM1 () Int
    1)
  (define-fun MemProv1 () Int
    15000)
  (define-fun ProcProv5 () Int
    4)
  (define-fun C4_VM3 () Int
    0)
  (define-fun C1_VM5 () Int
    0)
  (define-fun C3_VM6 () Int
    0)
  (define-fun C1_VM6 () Int
    0)
  (define-fun PriceProv4 () Int
    1288)
  (define-fun PriceProv1 () Int
    402)
  (define-fun C3_VM2 () Int
    1)
  (define-fun C5_VM6 () Int
    0)
  (define-fun C3_VM1 () Int
    0)
  (define-fun MemProv6 () Int
    116999)
  (define-fun ProcProv6 () Int
    31)
  (define-fun C5_VM3 () Int
    0)
  (define-fun C3_VM4 () Int
    0)
  (define-fun MemProv3 () Int
    30500)
  (define-fun C2_VM4 () Int
    0)
  (define-fun PriceProv6 () Int
    0)
  (define-fun VM3Type () Int
    15)
  (define-fun StorageProv6 () Int
    999)
  (define-fun StorageProv2 () Int
    2000)
  (define-fun C2_VM3 () Int
    0)
  (define-fun MemProv2 () Int
    68400)
  (define-fun ProcProv3 () Int
    4)
  (define-fun VM6Type () Int
    0)
  (define-fun C2_VM6 () Int
    0)
  (define-fun C2_VM2 () Int
    0)
  (define-fun C5_VM5 () Int
    1)
  (define-fun C1_VM2 () Int
    0)
  (define-fun StorageProv5 () Int
    2000)
  (define-fun VM1Type () Int
    13)
  (define-fun C4_VM4 () Int
    1)
  (define-fun C4_VM6 () Int
    0)
  (define-fun StorageProv1 () Int
    2000)
  (define-fun ProcProv2 () Int
    8)
  (define-fun ProcProv1 () Int
    4)
  (define-fun C2_VM5 () Int
    1)
  (define-fun VM5Type () Int
    13)
  (define-fun C4_VM5 () Int
    0)
  (define-fun C1_VM4 () Int
    0)
  (define-fun PriceProv3 () Int
    379)
  (define-fun ProcProv4 () Int
    8)
  (define-fun VM2Type () Int
    12)
  (define-fun PriceProv5 () Int
    402)
  (define-fun StorageProv4 () Int
    2000)
  (define-fun MemProv4 () Int
    68400)
  (define-fun C4_VM2 () Int
    0)
  (define-fun PriceProv2 () Int
    1288)
  (define-fun C3_VM3 () Int
    0)
  (define-fun MemProv5 () Int
    15000)
  (define-fun C5_VM2 () Int
    1)
  (define-fun C1_VM1 () Int
    0)
)
(objectives
 ( 12)
 ((+ 0 PriceProv1 PriceProv2 PriceProv3 PriceProv4 PriceProv5 PriceProv6) 3759)
)
(:added-eqs                   38945
 :arith-eq-adapter            9764
 :arith-bound-propagations-lp 276
 :arith-conflicts             9
 :arith-diseq                 28984
 :arith-fixed-eqs             977
 :arith-lower                 24828
 :arith-make-feasible         6206
 :arith-max-columns           125
 :arith-max-rows              20
 :arith-upper                 41292
 :binary-propagations         128675
 :conflicts                   682
 :decisions                   17349
 :del-clause                  6276
 :final-checks                22
 :max-memory                  41.00
 :maxsat-cores                2
 :memory                      41.00
 :minimized-lits              3099
 :mk-bool-var                 20019
 :mk-clause                   7172
 :mk-clause-binary            2857
 :num-allocs                  5099004
 :num-checks                  23
 :pb-conflicts                463
 :pb-predicates               234
 :pb-propagations             1084
 :pb-resolves                 459
 :propagations                164099
 :restarts                    3
 :rlimit-count                1462580
 :solve-eqs-elim-vars         1
 :solve-eqs-steps             10
 :time                        0.08
 :total-time                  0.08)
